scip/tmr.jds.sol
solution status: optimal solution found
objective value:                    -14.5323539715478
x_m#1#1#1$energy                   0.0841862237999261 	(obj:-10)
x_m#1#1#1$protein                  0.0639381053033521 	(obj:-10)
x_p#1#1#2$energy                   0.0247341973563642 	(obj:-10)
x_p#1#1#2$protein                  0.0686922430937718 	(obj:-10)
x_p#1#2#3$energy                    0.109220509134783 	(obj:-10)
x_p#1#2#3$protein                   0.137429134238983 	(obj:-10)
x_p#1#2#4$energy                    0.106857680699599 	(obj:-10)
x_p#1#2#4$protein                   0.132228881246638 	(obj:-10)
x_p#2#1#1$energy                   0.0542908246151564 	(obj:-10)
x_p#2#1#1$protein                   0.106185793849429 	(obj:-10)
x_p#2#1#2$energy                   0.0894021130845031 	(obj:-10)
x_p#2#1#2$protein                   0.127800037398442 	(obj:-10)
x_p#2#2#3$energy                   0.0834404914987854 	(obj:-10)
x_p#2#2#3$protein                   0.101650822443234 	(obj:-10)
x_p#2#2#4$energy                   0.0723140166181818 	(obj:-10)
x_p#2#2#4$protein                  0.0908643227736341 	(obj:-10)
y#1#1$grasssilage                    13.6181842749981 	(obj:0)
y#1#1$maizesilage                     3.7186677280882 	(obj:0)
y#1#1$wheat                         0.139053045577287 	(obj:0)
y#1#2$grasssilage                    13.9519178299137 	(obj:0)
y#1#2$maizesilage                    3.80763732168279 	(obj:0)
y#2#1$grasssilage                    14.3895868014367 	(obj:0)
y#2#1$maizesilage                    4.07787698907153 	(obj:0)
y#2#2$grasssilage                    13.3842703734863 	(obj:0)
y#2#2$maizesilage                    3.39581796115748 	(obj:0)
